NAME: random-10-19739
TYPE: TSP
COMMENT: size=10 seed=19739
DIMENSION: 22
EDGE_WEIGHT_TYPE: EUC_2D
NODE_COORD_SECTION
+0 373 399
-0 373 399
+1 418 674
-1 600 42
+2 121 448
-2 17 891
+3 494 784
-3 808 332
+4 844 34
-4 264 875
+5 637 159
-5 576 868
+6 646 40
-6 856 613
+7 507 85
-7 387 299
+8 908 721
-8 327 874
+9 392 401
-9 267 202
+10 841 690
-10 619 414
PRECEDENCE_SECTION
+0 -0
+1 -1
+2 -2
+3 -3
+4 -4
+5 -5
+6 -6
+7 -7
+8 -8
+9 -9
+10 -10
EOF
